results/x-long/X-n134-k13.vrp_seed-26.vrp.sol
Route #1: 128 125 115 80 130 19 17 109 132
Route #2: 29 61 71 120 111 36 43 79 112
Route #3: 118 91 51 16 14 60 95
Route #4: 76 82 133 12 124 33 86 72 3
Route #5: 85 106 45 21 46 99 104 57 119
Route #6: 127 48 64 117 49 69 1 92 31
Route #7: 108 6 97 5 121 7 68 30 8 44 67 20 126 55 22 27 4 70 107 84 81 15 63 13
Route #8: 78 87 74 26 35 50 38 83
Route #9: 47 9 2 39 73 18 96 59
Route #10: 129 116 89 113 25 105 41 34 58
Route #11: 100 122 11 114 131 101 52 40
Route #12: 90 66 53 77 23 98 75 28 65 42 93 94 102 88 37 24
Route #13: 103 10 62 32 54 110 123 56
Cost 10916.000000